195 152 132 115 158 149 63 198 11 62 100 84 139 67 97 144 159 26 109 77 128 71 148 122 192 147 113 151 29 124 4 3 146 104 171 94 39 30 163 72 23 33 32 123 6 40 85 106 142 133 38 48 137 197 17 54 145 140 31 179 70 79 83 82 16 58 87 0 43 53 2 78 189 193 161 24 141 126 175 169 34 5 81 1 181 52 135 9 93 96 188 129 101 178 154 98 186 8 155 194 42 92 120 27 86 50 116 196 49 174 143 168 183 59 108 172 20 190 25 134 7 57 173 111 153 184 166 102 114 55 164 35 91 65 157 156 176 69 89 14 18 112 107 162 110 73 47 185 138 36 41 88 125 165 64 19 118 60 76 44 45 160 177 22 130 74 13 119 12 28 99 75 15 136 199 121 21 182 46 90 117 56 180 105 103 80 187 10 170 51 127 37 150 66 61 191 167 131 68 95 

